c seed= 1736713630
p cnf 8 32
-6 4 3 0
-3 5 2 0
-5 8 6 0
3 -4 -2 0
-3 -1 6 0
-3 -6 5 0
-4 -3 6 0
2 -1 7 0
8 3 5 0
-3 -8 5 0
-8 6 4 0
8 2 -4 0
-7 -8 -6 0
-7 3 6 0
-3 5 -4 0
6 -2 5 0
2 -5 -3 0
-7 -4 6 0
-8 5 3 0
-8 6 1 0
3 8 -6 0
-1 6 5 0
-8 -1 -4 0
1 -7 -5 0
3 4 -1 0
7 -5 -1 0
4 -6 -8 0
-5 -2 1 0
-6 3 -8 0
-4 2 6 0
7 -4 -8 0
-2 5 -1 0
